364,-30
620,21
857,164
1184,485
1191,406
776,593
681,676
698,430
705,423
888,438
1081,202
782,93
364,-30
225,258
237,336
296,345
441,406
390,617
296,345
237,476
512,529
1095,471
1081,202
718,292
744,343
311,286
267,341
311,286
672,434
652,402
698,430
512,529
681,676
732,731
742,791
760,-97
611,-38
782,93
558,237
441,406
531,406
718,292
